experiments/mac_ortools/detailed-output/inst-31-64732790.dzn

A = 3;
T = 63;
X = 8;
Y = 8;
Z = 8;
building = array2d(0..7, 0..7,
                   [0, 0, 0, 0, 0, 0, 0, 0, 0, 6, 1, 4, 5, 0, 5, 0, 0, 2, 5, 4, 5, 2, 7, 0, 0, 1, 1, 1, 1, 1, 1, 0,
                    0, 1, 1, 1, 1, 1, 1, 0, 0, 1, 1, 1, 1, 1, 1, 0, 0, 1, 1, 1, 1, 1, 1, 0, 0, 0, 0, 0, 0, 0, 0, 0]);
